sing20180426.12
TTAA 76121 48698
99005 25807 13002 00072 25408 06003 92760 24237 23502
85497 19848 29011 70147 11047 29513 50588 04710 22512
40760 14923 14509 30972 29123 09018 25100 38926 06013
20249 52139 06012 15428 67946 05021 10662 78361 16516
88109 81756 10030
77999=
TTCC 76127 48698
70866 78562 28524
88999
77999=
TTDD 7612/ 48698
11918 79760 22868 75964 33665 80161 44551 68973
21212 11934 20014 22911 18512 33897 21508 44888 24510
55830 27515 66776 24521 77699 28524 88663 27515 99616
24011 11610 23510 22578 11501 33551 01009=
